\ LP format - for model browsing. Use MPS format to capture full model detail.
Maximize
  3 x1 + 2 x2 + 4 x3 + 2 x4 + 3 x5 + x6
Subject To
 R0: 5 x1 + 3 x2 + 6 x3 + 4 x4 + 4 x5 + 2 x6 <= 20
 R1: x3 - x4 <= 0
 R2: x3 + x5 <= 1
Bounds
Binaries
 x1 x2 x3 x4 x5 x6
End
